Minimize
  C24 + C25 + C26 + C27 + C28 + C29 + C30 + C31 + C32 + C33 + C34 + C35
   + C36 + C37 + C38 + C39 + C40 + C41 + C42 + C43 + C44 + C45 + C46 + C47
Subject To
 R0: - C0 - C17 - C18 - C19 - C20 - C21 - C22 - C23 - C24 <= -6
 R1: C0 + C17 + C18 + C19 + C20 + C21 + C22 + C23 - C24 <= 6
 R2: - C0 - C1 - C18 - C19 - C20 - C21 - C22 - C23 - C25 <= -6
 R3: C0 + C1 + C18 + C19 + C20 + C21 + C22 + C23 - C25 <= 6
 R4: - C0 - C1 - C2 - C19 - C20 - C21 - C22 - C23 - C26 <= -6
 R5: C0 + C1 + C2 + C19 + C20 + C21 + C22 + C23 - C26 <= 6
 R6: - C0 - C1 - C2 - C3 - C20 - C21 - C22 - C23 - C27 <= -6
 R7: C0 + C1 + C2 + C3 + C20 + C21 + C22 + C23 - C27 <= 6
 R8: - C0 - C1 - C2 - C3 - C4 - C21 - C22 - C23 - C28 <= -6
 R9: C0 + C1 + C2 + C3 + C4 + C21 + C22 + C23 - C28 <= 6
 R10: - C0 - C1 - C2 - C3 - C4 - C5 - C22 - C23 - C29 <= -8
 R11: C0 + C1 + C2 + C3 + C4 + C5 + C22 + C23 - C29 <= 8
 R12: - C0 - C1 - C2 - C3 - C4 - C5 - C6 - C23 - C30 <= -9
 R13: C0 + C1 + C2 + C3 + C4 + C5 + C6 + C23 - C30 <= 9
 R14: - C0 - C1 - C2 - C3 - C4 - C5 - C6 - C7 - C31 <= -12
 R15: C0 + C1 + C2 + C3 + C4 + C5 + C6 + C7 - C31 <= 12
 R16: - C1 - C2 - C3 - C4 - C5 - C6 - C7 - C8 - C32 <= -18
 R17: C1 + C2 + C3 + C4 + C5 + C6 + C7 + C8 - C32 <= 18
 R18: - C2 - C3 - C4 - C5 - C6 - C7 - C8 - C9 - C33 <= -22
 R19: C2 + C3 + C4 + C5 + C6 + C7 + C8 + C9 - C33 <= 22
 R20: - C3 - C4 - C5 - C6 - C7 - C8 - C9 - C10 - C34 <= -25
 R21: C3 + C4 + C5 + C6 + C7 + C8 + C9 + C10 - C34 <= 25
 R22: - C4 - C5 - C6 - C7 - C8 - C9 - C10 - C11 - C35 <= -21
 R23: C4 + C5 + C6 + C7 + C8 + C9 + C10 + C11 - C35 <= 21
 R24: - C5 - C6 - C7 - C8 - C9 - C10 - C11 - C12 - C36 <= -21
 R25: C5 + C6 + C7 + C8 + C9 + C10 + C11 + C12 - C36 <= 21
 R26: - C6 - C7 - C8 - C9 - C10 - C11 - C12 - C13 - C37 <= -20
 R27: C6 + C7 + C8 + C9 + C10 + C11 + C12 + C13 - C37 <= 20
 R28: - C7 - C8 - C9 - C10 - C11 - C12 - C13 - C14 - C38 <= -18
 R29: C7 + C8 + C9 + C10 + C11 + C12 + C13 + C14 - C38 <= 18
 R30: - C8 - C9 - C10 - C11 - C12 - C13 - C14 - C15 - C39 <= -21
 R31: C8 + C9 + C10 + C11 + C12 + C13 + C14 + C15 - C39 <= 21
 R32: - C9 - C10 - C11 - C12 - C13 - C14 - C15 - C16 - C40 <= -21
 R33: C9 + C10 + C11 + C12 + C13 + C14 + C15 + C16 - C40 <= 21
 R34: - C10 - C11 - C12 - C13 - C14 - C15 - C16 - C17 - C41 <= -24
 R35: C10 + C11 + C12 + C13 + C14 + C15 + C16 + C17 - C41 <= 24
 R36: - C11 - C12 - C13 - C14 - C15 - C16 - C17 - C18 - C42 <= -24
 R37: C11 + C12 + C13 + C14 + C15 + C16 + C17 + C18 - C42 <= 24
 R38: - C12 - C13 - C14 - C15 - C16 - C17 - C18 - C19 - C43 <= -18
 R39: C12 + C13 + C14 + C15 + C16 + C17 + C18 + C19 - C43 <= 18
 R40: - C13 - C14 - C15 - C16 - C17 - C18 - C19 - C20 - C44 <= -18
 R41: C13 + C14 + C15 + C16 + C17 + C18 + C19 + C20 - C44 <= 18
 R42: - C14 - C15 - C16 - C17 - C18 - C19 - C20 - C21 - C45 <= -18
 R43: C14 + C15 + C16 + C17 + C18 + C19 + C20 + C21 - C45 <= 18
 R44: - C15 - C16 - C17 - C18 - C19 - C20 - C21 - C22 - C46 <= -12
 R45: C15 + C16 + C17 + C18 + C19 + C20 + C21 + C22 - C46 <= 12
 R46: - C16 - C17 - C18 - C19 - C20 - C21 - C22 - C23 - C47 <= -8
 R47: C16 + C17 + C18 + C19 + C20 + C21 + C22 + C23 - C47 <= 8
Bounds
Generals
 C0 C1 C2 C3 C4 C5 C6 C7 C8 C9 C10 C11 C12 C13 C14 C15 C16 C17 C18 C19 C20
 C21 C22 C23 C24 C25 C26 C27 C28 C29 C30 C31 C32 C33 C34 C35 C36 C37 C38
 C39 C40 C41 C42 C43 C44 C45 C46 C47
End
